50, 13298
529, 629
586, 686
844, 942
899, 998
883, 982
365, 464
949, 1047
425, 524
307, 405
95, 195
512, 612
155, 254
275, 377
611, 710
777, 877
753, 855
87, 188
62, 164
256, 357
552, 654
839, 937
801, 902
934, 1033
589, 688
637, 738
292, 393
314, 413
207, 306
536, 635
608, 710
574, 675
392, 491
424, 524
249, 347
816, 915
582, 682
749, 851
812, 914
281, 381
118, 219
283, 382
908, 1009
792, 894
406, 504
777, 879
342, 444
866, 965
91, 193
741, 843
981, 1079
